
  32   50
  16   11   11   16   14    7   10    9   13   10    9   15   14    9    5   11    6   15   14   20    7   14   13   18    8   19   10   12   13   11   12    8    0    0    0    0    0    0    0    0    0    0    0    0    0    0    0    0    0    0

   0   0   0   0   0   0   0   0   0   0   0   0   0   0   0   0   0   0   0   0   0   0   0   0   0   0   0   0   0   0   0   0   0   0   0   0   0   0   0   0   0   0   0   0   0   0   0   0   0   0   0   8 2 3 4 5 7 9 10 11 
   6   8   0   0   0   7   0   0   0   0   0   4   7   0   0   0   5   0   0   0   0   0   0   0   0   0   0   9   0   0   0   0   0   0   0   0   0   0   0   0   0   0   0   0   0   0   0   0   0   0   0   6 16 15 14 12 8 6 
   2   0   0   8   0   0   0   0   0   0  10   0   0   0   0   0   0   3   0   0   0   0   0   0   0   0   7   0   0   7   0   0   0   0   0   0   0   0   0   0   0   0   0   0   0   0   0   0   0   0   0   5 31 28 14 8 6 
   6   0   0   0   0   0   0   0   0   0   0   0   0   0   0   0   0   0   0   0   0   0   0   0   0   0  10   0   0   9   0   1   0   0   0   0   0   0   0   0   0   0   0   0   0   0   0   0   0   0   0   8 31 29 27 26 21 20 19 13 
   5   0   0   0   0   4   0   0   0   8   0   0   0   1   0   0   0   0   0   0   0   0   0   0   0   0   0   0   0   0   0   0   0   0   0   0   0   0   0   0   0   0   0   0   0   0   0   0   0   0   0   8 29 28 27 26 25 21 20 18 
  10   0   0   0   0   0   0   0   0   0   0   0   0   0   0   0   0   5   0   0   0   0   0   0   0   0   0   0   0   0   0   0   0   0   0   0   0   0   0   0   0   0   0   0   0   0   0   0   0   0   0   5 30 26 21 19 13 
  10   0   0   0   0   0   0   9   2   0   0   0   0   0   0   0   0   3   0   0   0   0   6   0   0   0   0   0   0   0   0   0   0   0   0   0   0   0   0   0   0   0   0   0   0   0   0   0   0   0   0   6 28 25 23 20 19 17 
   6   4   8   0   0   0   0   0   0   0   1   0   0   0   0   0   0   0   0   0   0   0   7   0   0   0   8   4   0   2   0  10   0   0   0   0   0   0   0   0   0   0   0   0   0   0   0   0   0   0   0   5 25 24 23 20 18 
   3   5   0   0   0   0   7   0   0   0   0   0   0   0   0   0   0   2   0   0   0   0   5   0   0   0   0   0   0   0   0   0   0   0   0   0   0   0   0   0   0   0   0   0   0   0   0   0   0   0   0   5 26 24 21 20 19 
   1   4   0   0   0   0   0   0   0   8   0   0   0   0   0   5   0   0   0   0   4   0   0   0   4   0   0   0   0   0   0   5   0   0   0   0   0   0   0   0   0   0   0   0   0   0   0   0   0   0   0   3 26 20 13 
   5   0   0   0   0   0   0   0   0   0   0   0   0   0   0   0   8   0   7   0   0   0   0   0   0   0   0   0   0   0   0   0   0   0   0   0   0   0   0   0   0   0   0   0   0   0   0   0   0   0   0   4 24 23 20 18 
  10   9   6   0   0   0   0   0   0   0   0   0   0   0   0   0   0   0   0   0   0   0   0   0   0   0   8   0   0   0   4   0   1   0   0   0   0   0   0   0   0   0   0   0   0   0   0   0   0   0   0   4 27 26 20 19 
   1   0   0   0   0   0   0   0   0   0   0   0   0   0   0   0   0   0   6   0   0   0   0   0   0   6   0   0   0   0   0   0   0   0   0   0   0   0   0   0   0   0   0   0   0   0   0   0   0   0   0   4 25 24 23 22 
   9   0   0   0   8   0   0   0   0   0   0   0   0   0   0   0   0   0   0   0   0   0   0   0   0   0   0   0   0   0   0   0   0   0   0   0   0   0   0   0   0   0   0   0   0   0   0   0   0   0   0   3 27 23 19 
   5   0   0   0   0   0   0   0   0   0   0   0   0   0   0   0   0   0   0   0   0   0   6   0   0   3   8   0   2   0   3   0   0   0   0   0   0   0   0   0   0   0   0   0   0   0   0   0   0   0   0   3 29 28 25 
   1   0   0   0   0   0   0   0   0   0   0   0   9   0   0   4   0   0   0   0   0   0   0   0   5   0   0   0   0   0   0   0   0   0   0   0   0   0   0   0   0   0   0   0   0   0   0   0   0   0   0   3 24 23 22 
   4   0   0   0   0   0   0   0   0   0   0   0   0   0   6   0   0   0   8   0   0   0   6   0   0   0   0   0   0   0   0   0   0   0   0   0   0   0   0   0   0   0   0   0   0   0   0   0   0   0   0   2 24 22 
   9   0   0   9   0   0   0   0   0   0   0   0   9   0   0   0   0   0   0   0   3   0   0   0   0   0   0   0   0   0   0   0   0   0   0   0   0   0   0   0   0   0   0   0   0   0   0   0   0   0   0   1 19 
   3   0   0  10   0   0   0   3   9   0   0   0   0   0   0   0   0   0   0   2   0   0   5   0  10   0   0   0   0   0   2   0   0   0   0   0   0   0   0   0   0   0   0   0   0   0   0   0   0   0   0   1 22 
   8   0   0   0  10   6   0   0   0   5   0   0   0   0   0   0   0   0   0   0   0   0   0   0   0   1   0   0   0   0   9   6   0   0   0   0   0   0   0   0   0   0   0   0   0   0   0   0   0   0   0   1 22 
   3   0   0   0   0   0   0   7   0   0   0   0   0   0   3   0   0   3   0   0   0   0   0   0   0   0   0   0   9   2   0   0   0   0   0   0   0   0   0   0   0   0   0   0   0   0   0   0   0   0   0   1 23 
   8   1   0   0   0   0   0   1   0   4   0   0   0   8   0   0   0   0   0   0   0   0   0   0   9   0   0   0   8   0  10   0   8   0   0   0   0   0   0   0   0   0   0   0   0   0   0   0   0   0   0   1 32
   3   0   0   2   0   9   0   0   0   6   0   0  10   1   0   0   0   0   1   0   0   0   0   0   0   0   0   0   0  10   0   0   0   0   0   0   0   0   0   0   0   0   0   0   0   0   0   0   0   0   0   1 32
   4   0   3   0   3   0   0   0   0   0   0   0   0   9   0   0   4   3   0   0   0   0   0  10   0   0   0   0   0   0   0   0   0   0   0   0   0   0   0   0   0   0   0   0   0   0   0   0   0   0   0   1 32
   4   0   0   0   0   0   0   0   0   0   0   0   0   0   0   0   0   0   0   8   0   0   0   0   0   0   0   0   0   0   0   8   0   0   0   0   0   0   0   0   0   0   0   0   0   0   0   0   0   0   0   1 32
   4   9   0   0   0   0   0   0   0   0   0   0   0   0   0   0   0   0   0   9   8   0   0   0   8   0   0   0   0   0   0   0   0   0   0   0   0   0   0   0   0   0   0   0   0   0   0   0   0   0   0   1 32
   2   0   0   0   0   0   0   0   0   0   0   0   0   0   0   0   6   0   0   0   2   0   0   0   5   0   0   0   5   0   0   0   0   0   0   0   0   0   0   0   0   0   0   0   0   0   0   0   0   0   0   1 32
  10   0   0   0   7   0   0   0   0   0   0   0   0   4   0   0   0   0  10   0   0   0   0   0   0   0   0   8   0   0   0   0   0   0   0   0   0   0   0   0   0   0   0   0   0   0   0   0   0   0   0   1 32
   9   0   0   0   0   2   0   0   0   0   0   0   0   4   0   0   0   0   0   0   9   0   0   0   0   0   0   0   0   0   0   0   0   0   0   0   0   0   0   0   0   0   0   0   0   0   0   0   0   0   0   1 32
   5   0   0   0   0   0   0   5   0   0   0   0   0   0   8   0   0   0   0   0   5   7   0   6  10   0   0   0   0   0   3   0   0   0   0   0   0   0   0   0   0   0   0   0   0   0   0   0   0   0   0   1 32
   6   7   0   0   0   0   0   0   0   0   0   9   0   0   0   0   0   0   0   0   0   0   0   0   0   7   0   0   0   0   0   0   0   0   0   0   0   0   0   0   0   0   0   0   0   0   0   0   0   0   0   1 32
   0   0   0   0   0   0   0   0   0   0   0   0   0   0   0   0   0   0   0   0   0   0   0   0   0   0   0   0   0   0   0   0   0   0   0   0   0   0   0   0   0   0   0   0   0   0   0   0   0   0   0   0 
